\ Model sudoku
\ LP format - for model browsing. Use MPS format to capture full model detail.
Minimize
 
Subject To
 V[0,0]: G[0,0,0] + G[0,0,1] + G[0,0,2] + G[0,0,3] + G[0,0,4] = 1
 V[0,1]: G[0,1,0] + G[0,1,1] + G[0,1,2] + G[0,1,3] + G[0,1,4] = 1
 V[0,2]: G[0,2,0] + G[0,2,1] + G[0,2,2] + G[0,2,3] + G[0,2,4] = 1
 V[0,3]: G[0,3,0] + G[0,3,1] + G[0,3,2] + G[0,3,3] + G[0,3,4] = 1
 V[0,4]: G[0,4,0] + G[0,4,1] + G[0,4,2] + G[0,4,3] + G[0,4,4] = 1
 V[0,5]: G[0,5,0] + G[0,5,1] + G[0,5,2] + G[0,5,3] + G[0,5,4] = 1
 V[0,6]: G[0,6,0] + G[0,6,1] + G[0,6,2] + G[0,6,3] + G[0,6,4] = 1
 V[0,7]: G[0,7,0] + G[0,7,1] + G[0,7,2] + G[0,7,3] + G[0,7,4] = 1
 V[1,0]: G[1,0,0] + G[1,0,1] + G[1,0,2] + G[1,0,3] + G[1,0,4] = 1
 V[1,1]: G[1,1,0] + G[1,1,1] + G[1,1,2] + G[1,1,3] + G[1,1,4] = 1
 V[1,2]: G[1,2,0] + G[1,2,1] + G[1,2,2] + G[1,2,3] + G[1,2,4] = 1
 V[1,3]: G[1,3,0] + G[1,3,1] + G[1,3,2] + G[1,3,3] + G[1,3,4] = 1
 V[1,4]: G[1,4,0] + G[1,4,1] + G[1,4,2] + G[1,4,3] + G[1,4,4] = 1
 V[1,5]: G[1,5,0] + G[1,5,1] + G[1,5,2] + G[1,5,3] + G[1,5,4] = 1
 V[1,6]: G[1,6,0] + G[1,6,1] + G[1,6,2] + G[1,6,3] + G[1,6,4] = 1
 V[1,7]: G[1,7,0] + G[1,7,1] + G[1,7,2] + G[1,7,3] + G[1,7,4] = 1
 V[2,0]: G[2,0,0] + G[2,0,1] + G[2,0,2] + G[2,0,3] + G[2,0,4] = 1
 V[2,1]: G[2,1,0] + G[2,1,1] + G[2,1,2] + G[2,1,3] + G[2,1,4] = 1
 V[2,2]: G[2,2,0] + G[2,2,1] + G[2,2,2] + G[2,2,3] + G[2,2,4] = 1
 V[2,3]: G[2,3,0] + G[2,3,1] + G[2,3,2] + G[2,3,3] + G[2,3,4] = 1
 V[2,4]: G[2,4,0] + G[2,4,1] + G[2,4,2] + G[2,4,3] + G[2,4,4] = 1
 V[2,5]: G[2,5,0] + G[2,5,1] + G[2,5,2] + G[2,5,3] + G[2,5,4] = 1
 V[2,6]: G[2,6,0] + G[2,6,1] + G[2,6,2] + G[2,6,3] + G[2,6,4] = 1
 V[2,7]: G[2,7,0] + G[2,7,1] + G[2,7,2] + G[2,7,3] + G[2,7,4] = 1
 V[3,0]: G[3,0,0] + G[3,0,1] + G[3,0,2] + G[3,0,3] + G[3,0,4] = 1
 V[3,1]: G[3,1,0] + G[3,1,1] + G[3,1,2] + G[3,1,3] + G[3,1,4] = 1
 V[3,2]: G[3,2,0] + G[3,2,1] + G[3,2,2] + G[3,2,3] + G[3,2,4] = 1
 V[3,3]: G[3,3,0] + G[3,3,1] + G[3,3,2] + G[3,3,3] + G[3,3,4] = 1
 V[3,4]: G[3,4,0] + G[3,4,1] + G[3,4,2] + G[3,4,3] + G[3,4,4] = 1
 V[3,5]: G[3,5,0] + G[3,5,1] + G[3,5,2] + G[3,5,3] + G[3,5,4] = 1
 V[3,6]: G[3,6,0] + G[3,6,1] + G[3,6,2] + G[3,6,3] + G[3,6,4] = 1
 V[3,7]: G[3,7,0] + G[3,7,1] + G[3,7,2] + G[3,7,3] + G[3,7,4] = 1
 V[4,0]: G[4,0,0] + G[4,0,1] + G[4,0,2] + G[4,0,3] + G[4,0,4] = 1
 V[4,1]: G[4,1,0] + G[4,1,1] + G[4,1,2] + G[4,1,3] + G[4,1,4] = 1
 V[4,2]: G[4,2,0] + G[4,2,1] + G[4,2,2] + G[4,2,3] + G[4,2,4] = 1
 V[4,3]: G[4,3,0] + G[4,3,1] + G[4,3,2] + G[4,3,3] + G[4,3,4] = 1
 V[4,4]: G[4,4,0] + G[4,4,1] + G[4,4,2] + G[4,4,3] + G[4,4,4] = 1
 V[4,5]: G[4,5,0] + G[4,5,1] + G[4,5,2] + G[4,5,3] + G[4,5,4] = 1
 V[4,6]: G[4,6,0] + G[4,6,1] + G[4,6,2] + G[4,6,3] + G[4,6,4] = 1
 V[4,7]: G[4,7,0] + G[4,7,1] + G[4,7,2] + G[4,7,3] + G[4,7,4] = 1
 V[5,0]: G[5,0,0] + G[5,0,1] + G[5,0,2] + G[5,0,3] + G[5,0,4] = 1
 V[5,1]: G[5,1,0] + G[5,1,1] + G[5,1,2] + G[5,1,3] + G[5,1,4] = 1
 V[5,2]: G[5,2,0] + G[5,2,1] + G[5,2,2] + G[5,2,3] + G[5,2,4] = 1
 V[5,3]: G[5,3,0] + G[5,3,1] + G[5,3,2] + G[5,3,3] + G[5,3,4] = 1
 V[5,4]: G[5,4,0] + G[5,4,1] + G[5,4,2] + G[5,4,3] + G[5,4,4] = 1
 V[5,5]: G[5,5,0] + G[5,5,1] + G[5,5,2] + G[5,5,3] + G[5,5,4] = 1
 V[5,6]: G[5,6,0] + G[5,6,1] + G[5,6,2] + G[5,6,3] + G[5,6,4] = 1
 V[5,7]: G[5,7,0] + G[5,7,1] + G[5,7,2] + G[5,7,3] + G[5,7,4] = 1
 V[6,0]: G[6,0,0] + G[6,0,1] + G[6,0,2] + G[6,0,3] + G[6,0,4] = 1
 V[6,1]: G[6,1,0] + G[6,1,1] + G[6,1,2] + G[6,1,3] + G[6,1,4] = 1
 V[6,2]: G[6,2,0] + G[6,2,1] + G[6,2,2] + G[6,2,3] + G[6,2,4] = 1
 V[6,3]: G[6,3,0] + G[6,3,1] + G[6,3,2] + G[6,3,3] + G[6,3,4] = 1
 V[6,4]: G[6,4,0] + G[6,4,1] + G[6,4,2] + G[6,4,3] + G[6,4,4] = 1
 V[6,5]: G[6,5,0] + G[6,5,1] + G[6,5,2] + G[6,5,3] + G[6,5,4] = 1
 V[6,6]: G[6,6,0] + G[6,6,1] + G[6,6,2] + G[6,6,3] + G[6,6,4] = 1
 V[6,7]: G[6,7,0] + G[6,7,1] + G[6,7,2] + G[6,7,3] + G[6,7,4] = 1
 V[7,0]: G[7,0,0] + G[7,0,1] + G[7,0,2] + G[7,0,3] + G[7,0,4] = 1
 V[7,1]: G[7,1,0] + G[7,1,1] + G[7,1,2] + G[7,1,3] + G[7,1,4] = 1
 V[7,2]: G[7,2,0] + G[7,2,1] + G[7,2,2] + G[7,2,3] + G[7,2,4] = 1
 V[7,3]: G[7,3,0] + G[7,3,1] + G[7,3,2] + G[7,3,3] + G[7,3,4] = 1
 V[7,4]: G[7,4,0] + G[7,4,1] + G[7,4,2] + G[7,4,3] + G[7,4,4] = 1
 V[7,5]: G[7,5,0] + G[7,5,1] + G[7,5,2] + G[7,5,3] + G[7,5,4] = 1
 V[7,6]: G[7,6,0] + G[7,6,1] + G[7,6,2] + G[7,6,3] + G[7,6,4] = 1
 V[7,7]: G[7,7,0] + G[7,7,1] + G[7,7,2] + G[7,7,3] + G[7,7,4] = 1
 R[0,1]: G[0,0,1] + G[0,1,1] + G[0,2,1] + G[0,3,1] + G[0,4,1] + G[0,5,1]
   + G[0,6,1] + G[0,7,1] = 1
 R[0,2]: G[0,0,2] + G[0,1,2] + G[0,2,2] + G[0,3,2] + G[0,4,2] + G[0,5,2]
   + G[0,6,2] + G[0,7,2] = 1
 R[0,3]: G[0,0,3] + G[0,1,3] + G[0,2,3] + G[0,3,3] + G[0,4,3] + G[0,5,3]
   + G[0,6,3] + G[0,7,3] = 1
 R[0,4]: G[0,0,4] + G[0,1,4] + G[0,2,4] + G[0,3,4] + G[0,4,4] + G[0,5,4]
   + G[0,6,4] + G[0,7,4] = 1
 R[1,1]: G[1,0,1] + G[1,1,1] + G[1,2,1] + G[1,3,1] + G[1,4,1] + G[1,5,1]
   + G[1,6,1] + G[1,7,1] = 1
 R[1,2]: G[1,0,2] + G[1,1,2] + G[1,2,2] + G[1,3,2] + G[1,4,2] + G[1,5,2]
   + G[1,6,2] + G[1,7,2] = 1
 R[1,3]: G[1,0,3] + G[1,1,3] + G[1,2,3] + G[1,3,3] + G[1,4,3] + G[1,5,3]
   + G[1,6,3] + G[1,7,3] = 1
 R[1,4]: G[1,0,4] + G[1,1,4] + G[1,2,4] + G[1,3,4] + G[1,4,4] + G[1,5,4]
   + G[1,6,4] + G[1,7,4] = 1
 R[2,1]: G[2,0,1] + G[2,1,1] + G[2,2,1] + G[2,3,1] + G[2,4,1] + G[2,5,1]
   + G[2,6,1] + G[2,7,1] = 1
 R[2,2]: G[2,0,2] + G[2,1,2] + G[2,2,2] + G[2,3,2] + G[2,4,2] + G[2,5,2]
   + G[2,6,2] + G[2,7,2] = 1
 R[2,3]: G[2,0,3] + G[2,1,3] + G[2,2,3] + G[2,3,3] + G[2,4,3] + G[2,5,3]
   + G[2,6,3] + G[2,7,3] = 1
 R[2,4]: G[2,0,4] + G[2,1,4] + G[2,2,4] + G[2,3,4] + G[2,4,4] + G[2,5,4]
   + G[2,6,4] + G[2,7,4] = 1
 R[3,1]: G[3,0,1] + G[3,1,1] + G[3,2,1] + G[3,3,1] + G[3,4,1] + G[3,5,1]
   + G[3,6,1] + G[3,7,1] = 1
 R[3,2]: G[3,0,2] + G[3,1,2] + G[3,2,2] + G[3,3,2] + G[3,4,2] + G[3,5,2]
   + G[3,6,2] + G[3,7,2] = 1
 R[3,3]: G[3,0,3] + G[3,1,3] + G[3,2,3] + G[3,3,3] + G[3,4,3] + G[3,5,3]
   + G[3,6,3] + G[3,7,3] = 1
 R[3,4]: G[3,0,4] + G[3,1,4] + G[3,2,4] + G[3,3,4] + G[3,4,4] + G[3,5,4]
   + G[3,6,4] + G[3,7,4] = 1
 R[4,1]: G[4,0,1] + G[4,1,1] + G[4,2,1] + G[4,3,1] + G[4,4,1] + G[4,5,1]
   + G[4,6,1] + G[4,7,1] = 1
 R[4,2]: G[4,0,2] + G[4,1,2] + G[4,2,2] + G[4,3,2] + G[4,4,2] + G[4,5,2]
   + G[4,6,2] + G[4,7,2] = 1
 R[4,3]: G[4,0,3] + G[4,1,3] + G[4,2,3] + G[4,3,3] + G[4,4,3] + G[4,5,3]
   + G[4,6,3] + G[4,7,3] = 1
 R[4,4]: G[4,0,4] + G[4,1,4] + G[4,2,4] + G[4,3,4] + G[4,4,4] + G[4,5,4]
   + G[4,6,4] + G[4,7,4] = 1
 R[5,1]: G[5,0,1] + G[5,1,1] + G[5,2,1] + G[5,3,1] + G[5,4,1] + G[5,5,1]
   + G[5,6,1] + G[5,7,1] = 1
 R[5,2]: G[5,0,2] + G[5,1,2] + G[5,2,2] + G[5,3,2] + G[5,4,2] + G[5,5,2]
   + G[5,6,2] + G[5,7,2] = 1
 R[5,3]: G[5,0,3] + G[5,1,3] + G[5,2,3] + G[5,3,3] + G[5,4,3] + G[5,5,3]
   + G[5,6,3] + G[5,7,3] = 1
 R[5,4]: G[5,0,4] + G[5,1,4] + G[5,2,4] + G[5,3,4] + G[5,4,4] + G[5,5,4]
   + G[5,6,4] + G[5,7,4] = 1
 R[6,1]: G[6,0,1] + G[6,1,1] + G[6,2,1] + G[6,3,1] + G[6,4,1] + G[6,5,1]
   + G[6,6,1] + G[6,7,1] = 1
 R[6,2]: G[6,0,2] + G[6,1,2] + G[6,2,2] + G[6,3,2] + G[6,4,2] + G[6,5,2]
   + G[6,6,2] + G[6,7,2] = 1
 R[6,3]: G[6,0,3] + G[6,1,3] + G[6,2,3] + G[6,3,3] + G[6,4,3] + G[6,5,3]
   + G[6,6,3] + G[6,7,3] = 1
 R[6,4]: G[6,0,4] + G[6,1,4] + G[6,2,4] + G[6,3,4] + G[6,4,4] + G[6,5,4]
   + G[6,6,4] + G[6,7,4] = 1
 R[7,1]: G[7,0,1] + G[7,1,1] + G[7,2,1] + G[7,3,1] + G[7,4,1] + G[7,5,1]
   + G[7,6,1] + G[7,7,1] = 1
 R[7,2]: G[7,0,2] + G[7,1,2] + G[7,2,2] + G[7,3,2] + G[7,4,2] + G[7,5,2]
   + G[7,6,2] + G[7,7,2] = 1
 R[7,3]: G[7,0,3] + G[7,1,3] + G[7,2,3] + G[7,3,3] + G[7,4,3] + G[7,5,3]
   + G[7,6,3] + G[7,7,3] = 1
 R[7,4]: G[7,0,4] + G[7,1,4] + G[7,2,4] + G[7,3,4] + G[7,4,4] + G[7,5,4]
   + G[7,6,4] + G[7,7,4] = 1
 R[0]: G[0,0,0] + G[0,1,0] + G[0,2,0] + G[0,3,0] + G[0,4,0] + G[0,5,0]
   + G[0,6,0] + G[0,7,0] = 4
 R[1]: G[1,0,0] + G[1,1,0] + G[1,2,0] + G[1,3,0] + G[1,4,0] + G[1,5,0]
   + G[1,6,0] + G[1,7,0] = 4
 R[2]: G[2,0,0] + G[2,1,0] + G[2,2,0] + G[2,3,0] + G[2,4,0] + G[2,5,0]
   + G[2,6,0] + G[2,7,0] = 4
 R[3]: G[3,0,0] + G[3,1,0] + G[3,2,0] + G[3,3,0] + G[3,4,0] + G[3,5,0]
   + G[3,6,0] + G[3,7,0] = 4
 R[4]: G[4,0,0] + G[4,1,0] + G[4,2,0] + G[4,3,0] + G[4,4,0] + G[4,5,0]
   + G[4,6,0] + G[4,7,0] = 4
 R[5]: G[5,0,0] + G[5,1,0] + G[5,2,0] + G[5,3,0] + G[5,4,0] + G[5,5,0]
   + G[5,6,0] + G[5,7,0] = 4
 R[6]: G[6,0,0] + G[6,1,0] + G[6,2,0] + G[6,3,0] + G[6,4,0] + G[6,5,0]
   + G[6,6,0] + G[6,7,0] = 4
 R[7]: G[7,0,0] + G[7,1,0] + G[7,2,0] + G[7,3,0] + G[7,4,0] + G[7,5,0]
   + G[7,6,0] + G[7,7,0] = 4
 C[0,1]: G[0,0,1] + G[1,0,1] + G[2,0,1] + G[3,0,1] + G[4,0,1] + G[5,0,1]
   + G[6,0,1] + G[7,0,1] = 1
 C[0,2]: G[0,0,2] + G[1,0,2] + G[2,0,2] + G[3,0,2] + G[4,0,2] + G[5,0,2]
   + G[6,0,2] + G[7,0,2] = 1
 C[0,3]: G[0,0,3] + G[1,0,3] + G[2,0,3] + G[3,0,3] + G[4,0,3] + G[5,0,3]
   + G[6,0,3] + G[7,0,3] = 1
 C[0,4]: G[0,0,4] + G[1,0,4] + G[2,0,4] + G[3,0,4] + G[4,0,4] + G[5,0,4]
   + G[6,0,4] + G[7,0,4] = 1
 C[1,1]: G[0,1,1] + G[1,1,1] + G[2,1,1] + G[3,1,1] + G[4,1,1] + G[5,1,1]
   + G[6,1,1] + G[7,1,1] = 1
 C[1,2]: G[0,1,2] + G[1,1,2] + G[2,1,2] + G[3,1,2] + G[4,1,2] + G[5,1,2]
   + G[6,1,2] + G[7,1,2] = 1
 C[1,3]: G[0,1,3] + G[1,1,3] + G[2,1,3] + G[3,1,3] + G[4,1,3] + G[5,1,3]
   + G[6,1,3] + G[7,1,3] = 1
 C[1,4]: G[0,1,4] + G[1,1,4] + G[2,1,4] + G[3,1,4] + G[4,1,4] + G[5,1,4]
   + G[6,1,4] + G[7,1,4] = 1
 C[2,1]: G[0,2,1] + G[1,2,1] + G[2,2,1] + G[3,2,1] + G[4,2,1] + G[5,2,1]
   + G[6,2,1] + G[7,2,1] = 1
 C[2,2]: G[0,2,2] + G[1,2,2] + G[2,2,2] + G[3,2,2] + G[4,2,2] + G[5,2,2]
   + G[6,2,2] + G[7,2,2] = 1
 C[2,3]: G[0,2,3] + G[1,2,3] + G[2,2,3] + G[3,2,3] + G[4,2,3] + G[5,2,3]
   + G[6,2,3] + G[7,2,3] = 1
 C[2,4]: G[0,2,4] + G[1,2,4] + G[2,2,4] + G[3,2,4] + G[4,2,4] + G[5,2,4]
   + G[6,2,4] + G[7,2,4] = 1
 C[3,1]: G[0,3,1] + G[1,3,1] + G[2,3,1] + G[3,3,1] + G[4,3,1] + G[5,3,1]
   + G[6,3,1] + G[7,3,1] = 1
 C[3,2]: G[0,3,2] + G[1,3,2] + G[2,3,2] + G[3,3,2] + G[4,3,2] + G[5,3,2]
   + G[6,3,2] + G[7,3,2] = 1
 C[3,3]: G[0,3,3] + G[1,3,3] + G[2,3,3] + G[3,3,3] + G[4,3,3] + G[5,3,3]
   + G[6,3,3] + G[7,3,3] = 1
 C[3,4]: G[0,3,4] + G[1,3,4] + G[2,3,4] + G[3,3,4] + G[4,3,4] + G[5,3,4]
   + G[6,3,4] + G[7,3,4] = 1
 C[4,1]: G[0,4,1] + G[1,4,1] + G[2,4,1] + G[3,4,1] + G[4,4,1] + G[5,4,1]
   + G[6,4,1] + G[7,4,1] = 1
 C[4,2]: G[0,4,2] + G[1,4,2] + G[2,4,2] + G[3,4,2] + G[4,4,2] + G[5,4,2]
   + G[6,4,2] + G[7,4,2] = 1
 C[4,3]: G[0,4,3] + G[1,4,3] + G[2,4,3] + G[3,4,3] + G[4,4,3] + G[5,4,3]
   + G[6,4,3] + G[7,4,3] = 1
 C[4,4]: G[0,4,4] + G[1,4,4] + G[2,4,4] + G[3,4,4] + G[4,4,4] + G[5,4,4]
   + G[6,4,4] + G[7,4,4] = 1
 C[5,1]: G[0,5,1] + G[1,5,1] + G[2,5,1] + G[3,5,1] + G[4,5,1] + G[5,5,1]
   + G[6,5,1] + G[7,5,1] = 1
 C[5,2]: G[0,5,2] + G[1,5,2] + G[2,5,2] + G[3,5,2] + G[4,5,2] + G[5,5,2]
   + G[6,5,2] + G[7,5,2] = 1
 C[5,3]: G[0,5,3] + G[1,5,3] + G[2,5,3] + G[3,5,3] + G[4,5,3] + G[5,5,3]
   + G[6,5,3] + G[7,5,3] = 1
 C[5,4]: G[0,5,4] + G[1,5,4] + G[2,5,4] + G[3,5,4] + G[4,5,4] + G[5,5,4]
   + G[6,5,4] + G[7,5,4] = 1
 C[6,1]: G[0,6,1] + G[1,6,1] + G[2,6,1] + G[3,6,1] + G[4,6,1] + G[5,6,1]
   + G[6,6,1] + G[7,6,1] = 1
 C[6,2]: G[0,6,2] + G[1,6,2] + G[2,6,2] + G[3,6,2] + G[4,6,2] + G[5,6,2]
   + G[6,6,2] + G[7,6,2] = 1
 C[6,3]: G[0,6,3] + G[1,6,3] + G[2,6,3] + G[3,6,3] + G[4,6,3] + G[5,6,3]
   + G[6,6,3] + G[7,6,3] = 1
 C[6,4]: G[0,6,4] + G[1,6,4] + G[2,6,4] + G[3,6,4] + G[4,6,4] + G[5,6,4]
   + G[6,6,4] + G[7,6,4] = 1
 C[7,1]: G[0,7,1] + G[1,7,1] + G[2,7,1] + G[3,7,1] + G[4,7,1] + G[5,7,1]
   + G[6,7,1] + G[7,7,1] = 1
 C[7,2]: G[0,7,2] + G[1,7,2] + G[2,7,2] + G[3,7,2] + G[4,7,2] + G[5,7,2]
   + G[6,7,2] + G[7,7,2] = 1
 C[7,3]: G[0,7,3] + G[1,7,3] + G[2,7,3] + G[3,7,3] + G[4,7,3] + G[5,7,3]
   + G[6,7,3] + G[7,7,3] = 1
 C[7,4]: G[0,7,4] + G[1,7,4] + G[2,7,4] + G[3,7,4] + G[4,7,4] + G[5,7,4]
   + G[6,7,4] + G[7,7,4] = 1
 C[0]: G[0,0,0] + G[1,0,0] + G[2,0,0] + G[3,0,0] + G[4,0,0] + G[5,0,0]
   + G[6,0,0] + G[7,0,0] = 4
 C[1]: G[0,1,0] + G[1,1,0] + G[2,1,0] + G[3,1,0] + G[4,1,0] + G[5,1,0]
   + G[6,1,0] + G[7,1,0] = 4
 C[2]: G[0,2,0] + G[1,2,0] + G[2,2,0] + G[3,2,0] + G[4,2,0] + G[5,2,0]
   + G[6,2,0] + G[7,2,0] = 4
 C[3]: G[0,3,0] + G[1,3,0] + G[2,3,0] + G[3,3,0] + G[4,3,0] + G[5,3,0]
   + G[6,3,0] + G[7,3,0] = 4
 C[4]: G[0,4,0] + G[1,4,0] + G[2,4,0] + G[3,4,0] + G[4,4,0] + G[5,4,0]
   + G[6,4,0] + G[7,4,0] = 4
 C[5]: G[0,5,0] + G[1,5,0] + G[2,5,0] + G[3,5,0] + G[4,5,0] + G[5,5,0]
   + G[6,5,0] + G[7,5,0] = 4
 C[6]: G[0,6,0] + G[1,6,0] + G[2,6,0] + G[3,6,0] + G[4,6,0] + G[5,6,0]
   + G[6,6,0] + G[7,6,0] = 4
 C[7]: G[0,7,0] + G[1,7,0] + G[2,7,0] + G[3,7,0] + G[4,7,0] + G[5,7,0]
   + G[6,7,0] + G[7,7,0] = 4
 R144: G[5,1,0] + G[6,0,0] + G[6,2,0] + G[7,1,0] = 3
 R145: G[5,1,2] + G[6,0,2] + G[6,2,2] + G[7,1,2] = 1
 R146: G[0,2,0] + G[1,1,0] + G[1,3,0] + G[2,2,0] = 3
 R147: G[0,2,3] + G[1,1,3] + G[1,3,3] + G[2,2,3] = 1
 R148: G[4,3,1] + G[5,2,1] + G[5,4,1] = 1
 R149: G[4,3,2] + G[5,2,2] + G[5,4,2] = 1
 R150: G[0,4,2] + G[0,6,2] + G[1,5,2] = 1
 R151: G[0,4,1] + G[0,6,1] + G[1,5,1] = 1
 R152: G[0,4,3] + G[0,6,3] + G[1,5,3] = 1
 R153: G[3,5,3] + G[3,7,3] + G[4,6,3] = 1
 R154: G[3,5,1] + G[3,7,1] + G[4,6,1] = 1
 R155: G[3,5,2] + G[3,7,2] + G[4,6,2] = 1
 R156: G[1,4,0] + G[2,3,0] + G[2,5,0] + G[3,4,0] = 2
 R157: G[1,4,1] + G[2,3,1] + G[2,5,1] + G[3,4,1] = 0
 R158: G[1,4,2] + G[2,3,2] + G[2,5,2] + G[3,4,2] = 1
 R159: G[1,4,3] + G[2,3,3] + G[2,5,3] + G[3,4,3] = 1
Bounds
 G[0,5,0] = 1
 G[1,2,0] = 1
 G[2,4,0] = 1
 G[2,6,1] = 1
 G[3,0,0] = 1
 G[3,6,0] = 1
 G[4,0,0] = 1
 G[4,1,1] = 1
 G[5,0,0] = 1
 G[5,3,0] = 1
 G[6,1,0] = 1
 G[6,3,1] = 1
 G[6,7,4] = 1
 G[7,6,4] = 1
 G[7,7,0] = 1
Binaries
 G[0,0,0] G[0,0,1] G[0,0,2] G[0,0,3] G[0,0,4] G[0,1,0] G[0,1,1] G[0,1,2]
 G[0,1,3] G[0,1,4] G[0,2,0] G[0,2,1] G[0,2,2] G[0,2,3] G[0,2,4] G[0,3,0]
 G[0,3,1] G[0,3,2] G[0,3,3] G[0,3,4] G[0,4,0] G[0,4,1] G[0,4,2] G[0,4,3]
 G[0,4,4] G[0,5,0] G[0,5,1] G[0,5,2] G[0,5,3] G[0,5,4] G[0,6,0] G[0,6,1]
 G[0,6,2] G[0,6,3] G[0,6,4] G[0,7,0] G[0,7,1] G[0,7,2] G[0,7,3] G[0,7,4]
 G[1,0,0] G[1,0,1] G[1,0,2] G[1,0,3] G[1,0,4] G[1,1,0] G[1,1,1] G[1,1,2]
 G[1,1,3] G[1,1,4] G[1,2,0] G[1,2,1] G[1,2,2] G[1,2,3] G[1,2,4] G[1,3,0]
 G[1,3,1] G[1,3,2] G[1,3,3] G[1,3,4] G[1,4,0] G[1,4,1] G[1,4,2] G[1,4,3]
 G[1,4,4] G[1,5,0] G[1,5,1] G[1,5,2] G[1,5,3] G[1,5,4] G[1,6,0] G[1,6,1]
 G[1,6,2] G[1,6,3] G[1,6,4] G[1,7,0] G[1,7,1] G[1,7,2] G[1,7,3] G[1,7,4]
 G[2,0,0] G[2,0,1] G[2,0,2] G[2,0,3] G[2,0,4] G[2,1,0] G[2,1,1] G[2,1,2]
 G[2,1,3] G[2,1,4] G[2,2,0] G[2,2,1] G[2,2,2] G[2,2,3] G[2,2,4] G[2,3,0]
 G[2,3,1] G[2,3,2] G[2,3,3] G[2,3,4] G[2,4,0] G[2,4,1] G[2,4,2] G[2,4,3]
 G[2,4,4] G[2,5,0] G[2,5,1] G[2,5,2] G[2,5,3] G[2,5,4] G[2,6,0] G[2,6,1]
 G[2,6,2] G[2,6,3] G[2,6,4] G[2,7,0] G[2,7,1] G[2,7,2] G[2,7,3] G[2,7,4]
 G[3,0,0] G[3,0,1] G[3,0,2] G[3,0,3] G[3,0,4] G[3,1,0] G[3,1,1] G[3,1,2]
 G[3,1,3] G[3,1,4] G[3,2,0] G[3,2,1] G[3,2,2] G[3,2,3] G[3,2,4] G[3,3,0]
 G[3,3,1] G[3,3,2] G[3,3,3] G[3,3,4] G[3,4,0] G[3,4,1] G[3,4,2] G[3,4,3]
 G[3,4,4] G[3,5,0] G[3,5,1] G[3,5,2] G[3,5,3] G[3,5,4] G[3,6,0] G[3,6,1]
 G[3,6,2] G[3,6,3] G[3,6,4] G[3,7,0] G[3,7,1] G[3,7,2] G[3,7,3] G[3,7,4]
 G[4,0,0] G[4,0,1] G[4,0,2] G[4,0,3] G[4,0,4] G[4,1,0] G[4,1,1] G[4,1,2]
 G[4,1,3] G[4,1,4] G[4,2,0] G[4,2,1] G[4,2,2] G[4,2,3] G[4,2,4] G[4,3,0]
 G[4,3,1] G[4,3,2] G[4,3,3] G[4,3,4] G[4,4,0] G[4,4,1] G[4,4,2] G[4,4,3]
 G[4,4,4] G[4,5,0] G[4,5,1] G[4,5,2] G[4,5,3] G[4,5,4] G[4,6,0] G[4,6,1]
 G[4,6,2] G[4,6,3] G[4,6,4] G[4,7,0] G[4,7,1] G[4,7,2] G[4,7,3] G[4,7,4]
 G[5,0,0] G[5,0,1] G[5,0,2] G[5,0,3] G[5,0,4] G[5,1,0] G[5,1,1] G[5,1,2]
 G[5,1,3] G[5,1,4] G[5,2,0] G[5,2,1] G[5,2,2] G[5,2,3] G[5,2,4] G[5,3,0]
 G[5,3,1] G[5,3,2] G[5,3,3] G[5,3,4] G[5,4,0] G[5,4,1] G[5,4,2] G[5,4,3]
 G[5,4,4] G[5,5,0] G[5,5,1] G[5,5,2] G[5,5,3] G[5,5,4] G[5,6,0] G[5,6,1]
 G[5,6,2] G[5,6,3] G[5,6,4] G[5,7,0] G[5,7,1] G[5,7,2] G[5,7,3] G[5,7,4]
 G[6,0,0] G[6,0,1] G[6,0,2] G[6,0,3] G[6,0,4] G[6,1,0] G[6,1,1] G[6,1,2]
 G[6,1,3] G[6,1,4] G[6,2,0] G[6,2,1] G[6,2,2] G[6,2,3] G[6,2,4] G[6,3,0]
 G[6,3,1] G[6,3,2] G[6,3,3] G[6,3,4] G[6,4,0] G[6,4,1] G[6,4,2] G[6,4,3]
 G[6,4,4] G[6,5,0] G[6,5,1] G[6,5,2] G[6,5,3] G[6,5,4] G[6,6,0] G[6,6,1]
 G[6,6,2] G[6,6,3] G[6,6,4] G[6,7,0] G[6,7,1] G[6,7,2] G[6,7,3] G[6,7,4]
 G[7,0,0] G[7,0,1] G[7,0,2] G[7,0,3] G[7,0,4] G[7,1,0] G[7,1,1] G[7,1,2]
 G[7,1,3] G[7,1,4] G[7,2,0] G[7,2,1] G[7,2,2] G[7,2,3] G[7,2,4] G[7,3,0]
 G[7,3,1] G[7,3,2] G[7,3,3] G[7,3,4] G[7,4,0] G[7,4,1] G[7,4,2] G[7,4,3]
 G[7,4,4] G[7,5,0] G[7,5,1] G[7,5,2] G[7,5,3] G[7,5,4] G[7,6,0] G[7,6,1]
 G[7,6,2] G[7,6,3] G[7,6,4] G[7,7,0] G[7,7,1] G[7,7,2] G[7,7,3] G[7,7,4]
End
